n = 12;
n2 = 18;
n3 = 36;
match12 = [|
74, 94, 88, 0, 94, 94, 88, 94, 78, 76, 88, 75, 82, 94, 75, 74, 75, 94|
89, 76, 79, 88, 76, 76, 78, 76, 85, 88, 0, 92, 76, 76, 64, 89, 88, 76|
81, 0, 82, 94, 0, 0, 82, 0, 81, 85, 76, 88, 88, 0, 65, 81, 82, 65|
81, 65, 86, 75, 65, 65, 86, 65, 85, 76, 64, 86, 71, 65, 0, 81, 88, 71|
78, 82, 88, 75, 82, 82, 69, 82, 81, 79, 88, 94, 82, 82, 88, 78, 0, 82|
37, 83, 77, 73, 83, 83, 90, 83, 47, 15, 87, 73, 77, 83, 77, 37, 80, 70|
89, 82, 71, 88, 82, 82, 0, 82, 89, 91, 78, 92, 76, 82, 86, 89, 69, 76|
74, 88, 71, 75, 88, 88, 92, 88, 74, 79, 92, 0, 76, 88, 86, 74, 94, 82|
68, 76, 88, 74, 76, 76, 88, 76, 68, 74, 85, 82, 71, 76, 82, 68, 82, 17|
0, 81, 78, 74, 81, 81, 89, 81, 19, 42, 89, 74, 78, 81, 81, 0, 78, 81|
78, 82, 0, 88, 82, 82, 71, 82, 78, 79, 79, 71, 76, 82, 86, 78, 88, 76|
78, 88, 76, 82, 88, 88, 76, 88, 78, 79, 76, 76, 0, 88, 71, 78, 82, 76|];
match23 = [|
0, 19, 74, 89, 81, 74, 19, 40, 47, 78, 78, 81, 19, 89, 81, 81, 19, 78, 19, 78, 74, 89, 11, 19, 78, 81, 40, 81, 74, 81, 37, 40, 19, 78, 89, 85|
81, 81, 94, 82, 88, 94, 85, 83, 84, 82, 82, 76, 77, 81, 82, 88, 81, 76, 81, 82, 94, 82, 84, 85, 82, 65, 83, 65, 88, 65, 83, 80, 77, 88, 76, 14|
78, 77, 88, 79, 71, 88, 74, 77, 78, 79, 0, 86, 77, 77, 71, 86, 77, 86, 78, 88, 88, 71, 76, 77, 0, 86, 77, 76, 71, 76, 77, 77, 77, 76, 79, 93|
74, 77, 0, 88, 8, 0, 74, 77, 75, 75, 88, 81, 77, 13, 75, 75, 77, 81, 78, 75, 0, 88, 72, 77, 88, 75, 77, 94, 75, 94, 73, 77, 77, 82, 88, 88|
81, 81, 94, 82, 88, 94, 85, 83, 84, 82, 82, 76, 77, 81, 82, 88, 81, 76, 81, 82, 94, 82, 84, 85, 82, 65, 83, 65, 88, 65, 83, 80, 77, 88, 76, 14|
81, 81, 94, 82, 88, 94, 85, 83, 84, 82, 82, 76, 77, 81, 82, 88, 81, 76, 81, 82, 94, 82, 84, 85, 82, 65, 83, 65, 88, 65, 83, 80, 77, 88, 76, 14|
89, 88, 88, 12, 92, 88, 89, 90, 91, 17, 71, 18, 88, 85, 19, 15, 88, 19, 89, 69, 88, 0, 88, 88, 71, 86, 90, 76, 92, 76, 90, 90, 88, 76, 78, 90|
81, 81, 94, 82, 88, 94, 85, 83, 84, 82, 82, 76, 77, 81, 82, 88, 81, 76, 81, 82, 94, 82, 84, 85, 82, 65, 83, 65, 88, 65, 83, 80, 77, 88, 76, 14|
19, 19, 78, 89, 78, 78, 26, 43, 53, 81, 78, 81, 15, 96, 81, 81, 15, 78, 11, 81, 78, 89, 22, 19, 78, 85, 43, 81, 74, 81, 47, 37, 19, 78, 85, 85|
42, 45, 76, 91, 79, 76, 42, 18, 3, 82, 79, 82, 45, 79, 82, 82, 45, 79, 45, 79, 76, 91, 45, 45, 79, 76, 18, 76, 79, 76, 15, 18, 48, 79, 88, 85|
89, 88, 88, 89, 83, 88, 89, 83, 88, 70, 79, 73, 85, 85, 67, 78, 88, 67, 85, 88, 88, 78, 88, 85, 79, 64, 83, 76, 92, 76, 87, 87, 88, 76, 0, 90|
74, 69, 75, 92, 75, 75, 74, 77, 78, 92, 71, 83, 73, 77, 75, 75, 69, 100, 74, 94, 75, 92, 72, 73, 71, 86, 77, 82, 0, 82, 73, 77, 73, 76, 92, 100|
78, 73, 82, 76, 76, 82, 81, 77, 78, 76, 76, 76, 77, 77, 71, 65, 73, 88, 74, 82, 82, 76, 76, 77, 76, 71, 77, 76, 76, 76, 77, 77, 73, 0, 76, 88|
81, 81, 94, 82, 88, 94, 85, 83, 84, 82, 82, 76, 77, 81, 82, 88, 81, 76, 81, 82, 94, 82, 84, 85, 82, 65, 83, 65, 88, 65, 83, 80, 77, 88, 76, 14|
81, 85, 75, 86, 79, 75, 81, 83, 75, 79, 86, 86, 81, 73, 86, 79, 85, 79, 85, 88, 75, 86, 80, 81, 86, 0, 83, 71, 86, 71, 77, 80, 81, 71, 64, 71|
0, 19, 74, 89, 81, 74, 19, 40, 47, 78, 78, 81, 19, 89, 81, 81, 19, 78, 19, 78, 74, 89, 11, 19, 78, 81, 40, 81, 74, 81, 37, 40, 19, 78, 89, 85|
78, 81, 75, 81, 94, 75, 78, 83, 78, 56, 88, 69, 81, 73, 81, 75, 81, 69, 81, 0, 75, 69, 76, 81, 88, 88, 83, 82, 94, 82, 80, 83, 81, 82, 88, 88|
81, 81, 94, 76, 88, 94, 85, 73, 75, 76, 76, 71, 77, 69, 76, 76, 81, 82, 81, 82, 94, 76, 80, 81, 76, 71, 73, 0, 82, 0, 70, 73, 81, 76, 76, 82|];
match31 = [|
74, 89, 81, 81, 78, 37, 89, 74, 68, 0, 78, 78, 100, 100, 100, 100, 100, 100, 100, 100, 100, 100, 100, 100, 100, 100, 100, 100, 100, 100, 100, 100, 100, 100, 100, 100|
77, 88, 81, 85, 81, 40, 88, 69, 68, 19, 77, 73, 100, 100, 100, 100, 100, 100, 100, 100, 100, 100, 100, 100, 100, 100, 100, 100, 100, 100, 100, 100, 100, 100, 100, 100|
0, 88, 94, 75, 75, 73, 88, 75, 74, 74, 88, 82, 100, 100, 100, 100, 100, 100, 100, 100, 100, 100, 100, 100, 100, 100, 100, 100, 100, 100, 100, 100, 100, 100, 100, 100|
88, 89, 82, 86, 81, 90, 12, 92, 88, 89, 79, 76, 100, 100, 100, 100, 100, 100, 100, 100, 100, 100, 100, 100, 100, 100, 100, 100, 100, 100, 100, 100, 100, 100, 100, 100|
8, 83, 88, 79, 94, 77, 92, 75, 85, 81, 71, 76, 100, 100, 100, 100, 100, 100, 100, 100, 100, 100, 100, 100, 100, 100, 100, 100, 100, 100, 100, 100, 100, 100, 100, 100|
0, 88, 94, 75, 75, 73, 88, 75, 74, 74, 88, 82, 100, 100, 100, 100, 100, 100, 100, 100, 100, 100, 100, 100, 100, 100, 100, 100, 100, 100, 100, 100, 100, 100, 100, 100|
74, 89, 85, 81, 78, 40, 89, 74, 74, 19, 74, 81, 100, 100, 100, 100, 100, 100, 100, 100, 100, 100, 100, 100, 100, 100, 100, 100, 100, 100, 100, 100, 100, 100, 100, 100|
77, 83, 83, 83, 83, 10, 90, 77, 65, 40, 77, 77, 100, 100, 100, 100, 100, 100, 100, 100, 100, 100, 100, 100, 100, 100, 100, 100, 100, 100, 100, 100, 100, 100, 100, 100|
75, 88, 84, 75, 78, 19, 91, 78, 74, 47, 78, 78, 100, 100, 100, 100, 100, 100, 100, 100, 100, 100, 100, 100, 100, 100, 100, 100, 100, 100, 100, 100, 100, 100, 100, 100|
75, 70, 82, 79, 56, 80, 17, 92, 85, 78, 79, 76, 100, 100, 100, 100, 100, 100, 100, 100, 100, 100, 100, 100, 100, 100, 100, 100, 100, 100, 100, 100, 100, 100, 100, 100|
88, 79, 82, 86, 88, 77, 71, 71, 88, 78, 0, 76, 100, 100, 100, 100, 100, 100, 100, 100, 100, 100, 100, 100, 100, 100, 100, 100, 100, 100, 100, 100, 100, 100, 100, 100|
81, 73, 76, 86, 69, 80, 18, 83, 82, 81, 86, 76, 100, 100, 100, 100, 100, 100, 100, 100, 100, 100, 100, 100, 100, 100, 100, 100, 100, 100, 100, 100, 100, 100, 100, 100|
77, 85, 77, 81, 81, 37, 88, 73, 65, 19, 77, 77, 100, 100, 100, 100, 100, 100, 100, 100, 100, 100, 100, 100, 100, 100, 100, 100, 100, 100, 100, 100, 100, 100, 100, 100|
13, 85, 81, 73, 73, 77, 85, 77, 74, 89, 77, 77, 100, 100, 100, 100, 100, 100, 100, 100, 100, 100, 100, 100, 100, 100, 100, 100, 100, 100, 100, 100, 100, 100, 100, 100|
75, 67, 82, 86, 81, 80, 19, 75, 76, 81, 71, 71, 100, 100, 100, 100, 100, 100, 100, 100, 100, 100, 100, 100, 100, 100, 100, 100, 100, 100, 100, 100, 100, 100, 100, 100|
75, 78, 88, 79, 75, 80, 15, 75, 79, 81, 86, 65, 100, 100, 100, 100, 100, 100, 100, 100, 100, 100, 100, 100, 100, 100, 100, 100, 100, 100, 100, 100, 100, 100, 100, 100|
77, 88, 81, 85, 81, 43, 88, 69, 68, 19, 77, 73, 100, 100, 100, 100, 100, 100, 100, 100, 100, 100, 100, 100, 100, 100, 100, 100, 100, 100, 100, 100, 100, 100, 100, 100|
81, 67, 76, 79, 69, 77, 19, 100, 85, 78, 86, 88, 100, 100, 100, 100, 100, 100, 100, 100, 100, 100, 100, 100, 100, 100, 100, 100, 100, 100, 100, 100, 100, 100, 100, 100|
78, 85, 81, 85, 81, 47, 89, 74, 71, 19, 78, 74, 100, 100, 100, 100, 100, 100, 100, 100, 100, 100, 100, 100, 100, 100, 100, 100, 100, 100, 100, 100, 100, 100, 100, 100|
75, 88, 82, 88, 0, 80, 69, 94, 82, 78, 88, 82, 100, 100, 100, 100, 100, 100, 100, 100, 100, 100, 100, 100, 100, 100, 100, 100, 100, 100, 100, 100, 100, 100, 100, 100|
0, 88, 94, 75, 75, 73, 88, 75, 74, 74, 88, 82, 100, 100, 100, 100, 100, 100, 100, 100, 100, 100, 100, 100, 100, 100, 100, 100, 100, 100, 100, 100, 100, 100, 100, 100|
88, 78, 82, 86, 69, 90, 0, 92, 88, 89, 71, 76, 100, 100, 100, 100, 100, 100, 100, 100, 100, 100, 100, 100, 100, 100, 100, 100, 100, 100, 100, 100, 100, 100, 100, 100|
72, 88, 84, 80, 76, 40, 88, 72, 68, 11, 76, 76, 100, 100, 100, 100, 100, 100, 100, 100, 100, 100, 100, 100, 100, 100, 100, 100, 100, 100, 100, 100, 100, 100, 100, 100|
77, 85, 85, 81, 81, 40, 88, 73, 71, 19, 77, 77, 100, 100, 100, 100, 100, 100, 100, 100, 100, 100, 100, 100, 100, 100, 100, 100, 100, 100, 100, 100, 100, 100, 100, 100|
88, 79, 82, 86, 88, 77, 71, 71, 88, 78, 0, 76, 100, 100, 100, 100, 100, 100, 100, 100, 100, 100, 100, 100, 100, 100, 100, 100, 100, 100, 100, 100, 100, 100, 100, 100|
75, 64, 65, 0, 88, 77, 86, 86, 82, 81, 86, 71, 100, 100, 100, 100, 100, 100, 100, 100, 100, 100, 100, 100, 100, 100, 100, 100, 100, 100, 100, 100, 100, 100, 100, 100|
77, 83, 83, 83, 83, 10, 90, 77, 65, 40, 77, 77, 100, 100, 100, 100, 100, 100, 100, 100, 100, 100, 100, 100, 100, 100, 100, 100, 100, 100, 100, 100, 100, 100, 100, 100|
94, 76, 65, 71, 82, 70, 76, 82, 17, 81, 76, 76, 100, 100, 100, 100, 100, 100, 100, 100, 100, 100, 100, 100, 100, 100, 100, 100, 100, 100, 100, 100, 100, 100, 100, 100|
75, 92, 88, 86, 94, 73, 92, 0, 82, 74, 71, 76, 100, 100, 100, 100, 100, 100, 100, 100, 100, 100, 100, 100, 100, 100, 100, 100, 100, 100, 100, 100, 100, 100, 100, 100|
94, 76, 65, 71, 82, 70, 76, 82, 17, 81, 76, 76, 100, 100, 100, 100, 100, 100, 100, 100, 100, 100, 100, 100, 100, 100, 100, 100, 100, 100, 100, 100, 100, 100, 100, 100|
73, 87, 83, 77, 80, 0, 90, 73, 62, 37, 77, 77, 100, 100, 100, 100, 100, 100, 100, 100, 100, 100, 100, 100, 100, 100, 100, 100, 100, 100, 100, 100, 100, 100, 100, 100|
77, 87, 80, 80, 83, 10, 90, 77, 65, 40, 77, 77, 100, 100, 100, 100, 100, 100, 100, 100, 100, 100, 100, 100, 100, 100, 100, 100, 100, 100, 100, 100, 100, 100, 100, 100|
77, 88, 77, 81, 81, 43, 88, 73, 68, 19, 77, 73, 100, 100, 100, 100, 100, 100, 100, 100, 100, 100, 100, 100, 100, 100, 100, 100, 100, 100, 100, 100, 100, 100, 100, 100|
82, 76, 88, 71, 82, 77, 76, 76, 71, 78, 76, 0, 100, 100, 100, 100, 100, 100, 100, 100, 100, 100, 100, 100, 100, 100, 100, 100, 100, 100, 100, 100, 100, 100, 100, 100|
88, 0, 76, 64, 88, 87, 78, 92, 85, 89, 79, 76, 100, 100, 100, 100, 100, 100, 100, 100, 100, 100, 100, 100, 100, 100, 100, 100, 100, 100, 100, 100, 100, 100, 100, 100|
88, 90, 14, 71, 88, 83, 90, 100, 85, 85, 93, 88, 100, 100, 100, 100, 100, 100, 100, 100, 100, 100, 100, 100, 100, 100, 100, 100, 100, 100, 100, 100, 100, 100, 100, 100|];
